language Essence 1.3

letting codeWordLength be 26
letting dist be
        function((1, 1) --> 0, (1, 2) --> 2, (1, 3) --> 2, (1, 4) --> 2, (2, 1) --> 2, (2, 2) --> 0, (2, 3) --> 1,
                 (2, 4) --> 0, (3, 1) --> 2, (3, 2) --> 1, (3, 3) --> 0, (3, 4) --> 1, (4, 1) --> 2, (4, 2) --> 0,
                 (4, 3) --> 1, (4, 4) --> 0)
letting maxDist be 24
letting minDist be 16
letting nbCharacter be 4
letting numOfCodeWords be 25
